0 154 138 12 177 134 163 24 29 121 68 80 150 0 0 28 184 116 169 34 78 129 79 3 158 77 196 76 0 0 111 185 164 135 120 81 33 157 102 50 0 0 176 51 9 35 136 65 71 161 103 188 1 0 0 27 69 162 101 70 32 131 160 128 66 20 30 122 132 0 0 167 31 108 90 181 63 126 189 10 190 0 0 146 182 19 107 175 64 11 159 62 148 88 127 0 0 52 106 194 7 123 49 143 36 47 168 48 153 0 0 89 166 60 83 199 114 8 125 45 174 46 124 82 18 0 0 156 6 61 86 113 17 173 84 5 118 147 0 0 112 183 93 85 141 16 99 104 96 0 0 94 151 92 37 100 119 38 140 44 191 91 193 98 59 0 0 13 117 95 97 87 172 42 142 192 14 43 15 57 144 137 0 0 152 58 2 178 115 145 41 22 133 74 171 73 40 0 0 53 21 72 75 23 186 56 197 198 180 105 0 0 26 149 179 155 4 139 187 170 67 39 110 0 